(set-logic HORN)
(set-info :source |
    Benchmark: C_VC
    Output by Princess (http://www.philipp.ruemmer.org/princess.shtml)
|)
(set-info :status unsat)
(declare-heap Heap Addr HeapObject
 defObj
 ((HeapObject 0)) (
  (
   (O_Int (getInt Int))
   (O_UInt (getUInt Int))
   (O_Addr (getAddr Addr))
   (defObj)
  )
))
(declare-fun inv_main12 (Heap Int Int Int Int Int AddrRange AddrRange Int) Bool)
(declare-fun inv_main13 (Heap Int Int Int Int Int AddrRange AddrRange Int) Bool)
(declare-fun inv_main19 (Heap Int Int Int Int Int AddrRange AddrRange Int Int) Bool)
(declare-fun inv_main21 (Heap Int Int Int Int Int AddrRange AddrRange Int Int) Bool)
(declare-fun inv_main24 (Heap Int Int Int Int Int AddrRange AddrRange Int Int Int) Bool)
(declare-fun inv_main29 (Heap Int Int Int Int Int AddrRange AddrRange Int Int AddrRange Int Int Int) Bool)
(declare-fun inv_main34 (Heap Int Int Int Int Int AddrRange AddrRange Int Int AddrRange Int Int) Bool)
(declare-fun inv_main39 (Heap Int Int Int Int Int AddrRange AddrRange Int Int) Bool)
(declare-fun inv_main40 (Heap Int Int Int Int Int AddrRange AddrRange Int Int) Bool)
(declare-fun inv_main51 (Heap Int Int Int Int Int AddrRange AddrRange Int Int) Bool)
(declare-fun inv_main54 (Heap Int Int Int Int Int AddrRange AddrRange Int Int Int) Bool)
(declare-fun inv_main58 (Heap Int Int Int Int Int AddrRange AddrRange Int Int) Bool)
(declare-fun inv_main6 (Heap Int Int Int Int Int AddrRange AddrRange Int) Bool)
(declare-fun inv_main8 (Heap Int Int Int Int Int AddrRange AddrRange Int) Bool)
(assert (forall ((var0 Int) (var1 AddrRange) (var2 AddrRange) (var3 Int) (var4 Int) (var5 Int) (var6 Int) (var7 Int) (var8 Int) (var9 Heap) (var10 AddrRange) (var11 Int) (var12 Int) (var13 Int) (var14 Int) (var15 Int) (var16 Int) (var17 Int) (var18 Int) (var19 Heap) (var20 Int) (var21 Heap)) (or (not (and (and (and (= var21 emptyHeap) (= var20 100000)) (and (and (and (and (and (and (= var19 (newBatchHeap (batchAlloc emptyHeap (O_Int var18) var20))) (= var17 var20)) (= var16 var15)) (= var14 var13)) (= var12 0)) (= var11 0)) (= var10 (newAddrRange (batchAlloc emptyHeap (O_Int var18) var20))))) (and (and (and (and (and (and (and (= var9 (newBatchHeap (batchAlloc emptyHeap (O_Int var8) var17))) (= var7 var17)) (= var6 var16)) (= var5 var14)) (= var4 var12)) (= var3 var11)) (= var2 var10)) (= var1 (newAddrRange (batchAlloc emptyHeap (O_Int var8) var17)))))) (inv_main6 var9 var7 var6 var5 var4 var3 var2 var1 var0))))
(assert (forall ((var0 Int) (var1 Int) (var2 Int) (var3 AddrRange) (var4 AddrRange) (var5 Int) (var6 Int) (var7 Int) (var8 Int) (var9 Int) (var10 Heap)) (or (not (and (inv_main24 var10 var9 var8 var7 var6 var5 var4 var3 var2 var1 var0) (not (= var0 1)))) (inv_main21 var10 var9 var8 var7 var6 var5 var4 var3 var2 var1))))
(assert (forall ((var0 Int) (var1 Int) (var2 Int) (var3 AddrRange) (var4 AddrRange) (var5 Int) (var6 Int) (var7 Int) (var8 Int) (var9 Int) (var10 Heap)) (or (not (and (inv_main51 var10 var9 var8 var7 var6 var5 var4 var3 var2 var1) (and (is-O_Int (read var10 (nthAddrRange var4 (+ var8 1)))) (= var0 (getInt (read var10 (nthAddrRange var4 (+ var8 1)))))))) (inv_main54 var10 var9 var8 var7 var6 var5 var4 var3 var2 var1 var0))))
(assert (forall ((var0 Int) (var1 AddrRange) (var2 Int) (var3 Int) (var4 AddrRange) (var5 AddrRange) (var6 Int) (var7 Int) (var8 Int) (var9 Int) (var10 Int) (var11 Heap) (var12 Int) (var13 Int) (var14 Int) (var15 Int) (var16 Int) (var17 Int) (var18 Int) (var19 AddrRange) (var20 Int) (var21 Int) (var22 AddrRange) (var23 AddrRange) (var24 Int) (var25 Int) (var26 Int) (var27 Int) (var28 Int) (var29 Heap)) (or (not (and (inv_main29 var29 var28 var27 var26 var25 var24 var23 var22 var21 var20 var19 var18 var17 var16) (and (and (<= 0 (+ (+ var15 (* (- 1) (+ var14 1))) (- 1))) (and (and (not (= var13 var12)) (is-O_Int (read var29 (nthAddrRange var19 var16)))) (and (and (and (and (and (and (and (and (and (and (and (and (and (and (= var11 var29) (= var10 var28)) (= var9 var27)) (= var8 var26)) (= var7 var25)) (= var6 var24)) (= var5 var23)) (= var4 var22)) (= var3 var21)) (= var2 var20)) (= var1 var19)) (= var15 var18)) (= var12 var17)) (= var14 var16)) (= var13 (getInt (read var29 (nthAddrRange var19 var16))))))) (= var0 (+ var14 1))))) (inv_main29 var11 var10 var9 var8 var7 var6 var5 var4 var3 var2 var1 var15 var12 var0))))
(assert (forall ((var0 Int) (var1 Int) (var2 AddrRange) (var3 Int) (var4 Int) (var5 AddrRange) (var6 AddrRange) (var7 Int) (var8 Int) (var9 Int) (var10 Int) (var11 Int) (var12 Heap) (var13 Int) (var14 Int) (var15 Int) (var16 AddrRange) (var17 AddrRange) (var18 Int) (var19 Int) (var20 Int) (var21 Int) (var22 Int) (var23 Heap)) (or (not (and (inv_main19 var23 var22 var21 var20 var19 var18 var17 var16 var15 var14) (and (and (and (<= 0 (+ var13 (- 1))) (is-O_Int (read var23 (nthAddrRange var16 var14)))) (and (and (and (and (and (and (and (and (and (and (and (and (= var12 var23) (= var11 var22)) (= var10 var21)) (= var9 var20)) (= var8 var19)) (= var7 var18)) (= var6 var17)) (= var5 var16)) (= var4 var15)) (= var3 var14)) (= var2 var17)) (= var13 var19)) (= var1 (getInt (read var23 (nthAddrRange var16 var14)))))) (= var0 0)))) (inv_main29 var12 var11 var10 var9 var8 var7 var6 var5 var4 var3 var2 var13 var1 var0))))
(assert (forall ((var0 Int) (var1 Int) (var2 AddrRange) (var3 AddrRange) (var4 Int) (var5 Int) (var6 Int) (var7 Int) (var8 Int) (var9 Heap)) (or (not (and (inv_main6 var9 var8 var7 var6 var5 var4 var3 var2 var1) (= var0 0))) (inv_main8 var9 var8 var0 var6 var5 var4 var3 var2 var1))))
(assert (forall ((var0 Int) (var1 Int) (var2 AddrRange) (var3 AddrRange) (var4 Int) (var5 Int) (var6 Int) (var7 Int) (var8 Int) (var9 Int) (var10 Heap) (var11 Int) (var12 AddrRange) (var13 AddrRange) (var14 Int) (var15 Int) (var16 Int) (var17 Int) (var18 Int) (var19 Heap)) (or (not (and (inv_main13 var19 var18 var17 var16 var15 var14 var13 var12 var11) (and (and (and (is-O_Int (read var19 (nthAddrRange var12 var17))) (is-O_Int (read var19 (nthAddrRange var12 var17)))) (and (and (and (and (and (and (and (and (= var10 (write var19 (nthAddrRange var12 var17) (O_Int var9))) (= var8 var18)) (= var7 var17)) (= var6 var16)) (= var5 var15)) (= var4 var14)) (= var3 var13)) (= var2 var12)) (= var1 var11))) (= var0 (+ var7 1))))) (inv_main8 var10 var8 var0 var6 var5 var4 var3 var2 var1))))
(assert (forall ((var0 Int) (var1 Int) (var2 Int) (var3 Int) (var4 AddrRange) (var5 Int) (var6 AddrRange) (var7 AddrRange) (var8 Int) (var9 Int) (var10 Int) (var11 Int) (var12 Heap) (var13 Int) (var14 Int) (var15 Int) (var16 Int) (var17 AddrRange) (var18 Int) (var19 Int) (var20 AddrRange) (var21 AddrRange) (var22 Int) (var23 Int) (var24 Int) (var25 Int) (var26 Int) (var27 Heap)) (or (not (and (inv_main34 var27 var26 var25 var24 var23 var22 var21 var20 var19 var18 var17 var16 var15) (and (and (and (<= 0 (+ (+ var14 (* (- 1) (+ var13 1))) (- 1))) (and (and (is-O_Int (read var27 (nthAddrRange var17 var16))) (is-O_Int (read var27 (nthAddrRange var17 var16)))) (and (and (and (and (and (and (and (and (and (and (and (and (= var12 (write var27 (nthAddrRange var17 var16) (O_Int var15))) (= var14 var26)) (= var11 var25)) (= var10 var24)) (= var9 var23)) (= var8 var22)) (= var7 var21)) (= var6 var20)) (= var5 var19)) (= var13 var18)) (= var4 var17)) (= var3 var16)) (= var2 var15)))) (= var1 (+ var3 1))) (= var0 (+ var13 1))))) (inv_main19 var12 var14 var11 var10 var1 var8 var7 var6 var5 var0))))
(assert (forall ((var0 Int) (var1 Int) (var2 Int) (var3 Int) (var4 AddrRange) (var5 AddrRange) (var6 Int) (var7 Int) (var8 Int) (var9 Int) (var10 Int) (var11 Heap)) (or (not (and (inv_main24 var11 var10 var9 var8 var7 var6 var5 var4 var3 var2 var1) (and (and (<= 0 (+ (+ var10 (* (- 1) (+ var2 1))) (- 1))) (= var1 1)) (= var0 (+ var2 1))))) (inv_main19 var11 var10 var9 var8 var7 var6 var5 var4 var3 var0))))
(assert (forall ((var0 Int) (var1 Int) (var2 Int) (var3 AddrRange) (var4 AddrRange) (var5 Int) (var6 Int) (var7 Int) (var8 Int) (var9 Int) (var10 Heap)) (or (not (and (inv_main8 var10 var9 var8 var7 var6 var5 var4 var3 var2) (and (and (<= 0 (+ var9 (- 1))) (not (<= 0 (+ (+ var9 (* (- 1) var8)) (- 1))))) (= var1 0)))) (inv_main19 var10 var9 var8 var7 var6 var5 var4 var3 var0 var1))))
(assert (forall ((var0 Int) (var1 Int) (var2 Int) (var3 AddrRange) (var4 AddrRange) (var5 Int) (var6 Int) (var7 Int) (var8 Int) (var9 Int) (var10 Heap)) (or (not (and (inv_main58 var10 var9 var8 var7 var6 var5 var4 var3 var2 var1) (and (and (<= 0 (+ (+ (+ var9 (- 1)) (* (- 1) (+ var8 1))) (- 1))) (is-O_Int (read var10 (nthAddrRange var4 var8)))) (= var0 (+ var8 1))))) (inv_main58 var10 var9 var0 var7 var6 var5 var4 var3 var2 var1))))
(assert (forall ((var0 Int) (var1 Int) (var2 Int) (var3 AddrRange) (var4 AddrRange) (var5 Int) (var6 Int) (var7 Int) (var8 Heap) (var9 Int) (var10 Int) (var11 Int) (var12 Int) (var13 Int) (var14 AddrRange) (var15 AddrRange) (var16 Int) (var17 Int) (var18 Int) (var19 Int) (var20 Int) (var21 Heap)) (or (not (and (inv_main39 var21 var20 var19 var18 var17 var16 var15 var14 var13 var12) (and (and (and (<= 0 (+ (+ var11 (- 1)) (- 1))) (= var10 1)) (and (not (= var10 1)) (and (or (= var9 0) (= var10 1)) (and (and (and (and (and (and (and (and (and (and (= var8 var21) (= var11 var20)) (= var7 var19)) (= var6 var18)) (= var5 var17)) (= var10 var16)) (= var4 var15)) (= var3 var14)) (= var2 var13)) (= var1 var12)) (or (and (<= 0 (+ (+ var20 (* (- 1) var19)) (- 1))) (= var9 1)) (and (not (<= 0 (+ (+ var20 (* (- 1) var19)) (- 1)))) (= var9 0))))))) (= var0 0)))) (inv_main58 var8 var11 var0 var6 var5 var10 var4 var3 var2 var1))))
(assert (forall ((var0 Int) (var1 Int) (var2 Int) (var3 AddrRange) (var4 AddrRange) (var5 Int) (var6 Int) (var7 Heap) (var8 Int) (var9 Int) (var10 Int) (var11 Int) (var12 Int) (var13 Int) (var14 AddrRange) (var15 AddrRange) (var16 Int) (var17 Int) (var18 Int) (var19 Int) (var20 Int) (var21 Heap)) (or (not (and (inv_main39 var21 var20 var19 var18 var17 var16 var15 var14 var13 var12) (and (and (and (<= 0 (+ (+ var11 (- 1)) (- 1))) (= var10 1)) (and (not (<= 0 (+ (+ (+ var11 (- 1)) (* (- 1) var9)) (- 1)))) (and (= var10 1) (and (or (= var8 0) (= var10 1)) (and (and (and (and (and (and (and (and (and (and (= var7 var21) (= var11 var20)) (= var6 var19)) (= var9 var18)) (= var5 var17)) (= var10 var16)) (= var4 var15)) (= var3 var14)) (= var2 var13)) (= var1 var12)) (or (and (<= 0 (+ (+ var20 (* (- 1) var19)) (- 1))) (= var8 1)) (and (not (<= 0 (+ (+ var20 (* (- 1) var19)) (- 1)))) (= var8 0)))))))) (= var0 0)))) (inv_main58 var7 var11 var0 var9 var5 var10 var4 var3 var2 var1))))
(assert (forall ((var0 Int) (var1 Int) (var2 Int) (var3 AddrRange) (var4 AddrRange) (var5 Int) (var6 Int) (var7 Heap) (var8 Int) (var9 Int) (var10 Int) (var11 Int) (var12 Int) (var13 Int) (var14 AddrRange) (var15 AddrRange) (var16 Int) (var17 Int) (var18 Int) (var19 Int) (var20 Int) (var21 Heap)) (or (not (and (inv_main54 var21 var20 var19 var18 var17 var16 var15 var14 var13 var12 var11) (and (and (and (<= 0 (+ (+ var10 (- 1)) (- 1))) (= var9 1)) (and (not (<= 0 (+ (+ (+ var10 (- 1)) (* (- 1) (+ var8 1))) (- 1)))) (and (and (is-O_Int (read var21 (nthAddrRange var15 var19))) (is-O_Int (read var21 (nthAddrRange var15 var19)))) (and (and (and (and (and (and (and (and (and (= var7 (write var21 (nthAddrRange var15 var19) (O_Int var11))) (= var10 var20)) (= var8 var19)) (= var6 var18)) (= var5 var17)) (= var9 var16)) (= var4 var15)) (= var3 var14)) (= var2 var13)) (= var1 var12))))) (= var0 0)))) (inv_main58 var7 var10 var0 var6 var5 var9 var4 var3 var2 var1))))
(assert (forall ((var0 Int) (var1 AddrRange) (var2 AddrRange) (var3 Int) (var4 Int) (var5 Int) (var6 Int) (var7 Int) (var8 Int) (var9 Heap) (var10 Int) (var11 AddrRange) (var12 AddrRange) (var13 Int) (var14 Int) (var15 Int) (var16 Int) (var17 Int) (var18 Heap)) (or (not (and (inv_main12 var18 var17 var16 var15 var14 var13 var12 var11 var10) (and (and (is-O_Int (read var18 (nthAddrRange var12 var16))) (is-O_Int (read var18 (nthAddrRange var12 var16)))) (and (and (and (and (and (and (and (and (= var9 (write var18 (nthAddrRange var12 var16) (O_Int var8))) (= var7 var17)) (= var6 var16)) (= var5 var15)) (= var4 var14)) (= var3 var13)) (= var2 var12)) (= var1 var11)) (= var0 var10))))) (inv_main13 var9 var7 var6 var5 var4 var3 var2 var1 var0))))
(assert (forall ((var0 Int) (var1 Int) (var2 Int) (var3 AddrRange) (var4 Int) (var5 Int) (var6 AddrRange) (var7 AddrRange) (var8 Int) (var9 Int) (var10 Int) (var11 Int) (var12 Int) (var13 Heap) (var14 Int) (var15 Int) (var16 Int) (var17 Int) (var18 Int) (var19 AddrRange) (var20 Int) (var21 Int) (var22 AddrRange) (var23 AddrRange) (var24 Int) (var25 Int) (var26 Int) (var27 Int) (var28 Int) (var29 Heap)) (or (not (and (inv_main29 var29 var28 var27 var26 var25 var24 var23 var22 var21 var20 var19 var18 var17 var16) (and (and (and (= var15 var14) (is-O_Int (read var29 (nthAddrRange var19 var16)))) (and (and (and (and (and (and (and (and (and (and (and (and (and (and (= var13 var29) (= var12 var28)) (= var11 var27)) (= var10 var26)) (= var9 var25)) (= var8 var24)) (= var7 var23)) (= var6 var22)) (= var5 var21)) (= var4 var20)) (= var3 var19)) (= var2 var18)) (= var14 var17)) (= var1 var16)) (= var15 (getInt (read var29 (nthAddrRange var19 var16)))))) (= var0 1)))) (inv_main24 var13 var12 var11 var10 var9 var8 var7 var6 var5 var4 var0))))
(assert (forall ((var0 Int) (var1 AddrRange) (var2 Int) (var3 Int) (var4 AddrRange) (var5 AddrRange) (var6 Int) (var7 Int) (var8 Int) (var9 Int) (var10 Int) (var11 Heap) (var12 Int) (var13 Int) (var14 Int) (var15 Int) (var16 Int) (var17 Int) (var18 Int) (var19 AddrRange) (var20 Int) (var21 Int) (var22 AddrRange) (var23 AddrRange) (var24 Int) (var25 Int) (var26 Int) (var27 Int) (var28 Int) (var29 Heap)) (or (not (and (inv_main29 var29 var28 var27 var26 var25 var24 var23 var22 var21 var20 var19 var18 var17 var16) (and (and (not (<= 0 (+ (+ var15 (* (- 1) (+ var14 1))) (- 1)))) (and (and (not (= var13 var12)) (is-O_Int (read var29 (nthAddrRange var19 var16)))) (and (and (and (and (and (and (and (and (and (and (and (and (and (and (= var11 var29) (= var10 var28)) (= var9 var27)) (= var8 var26)) (= var7 var25)) (= var6 var24)) (= var5 var23)) (= var4 var22)) (= var3 var21)) (= var2 var20)) (= var1 var19)) (= var15 var18)) (= var12 var17)) (= var14 var16)) (= var13 (getInt (read var29 (nthAddrRange var19 var16))))))) (= var0 0)))) (inv_main24 var11 var10 var9 var8 var7 var6 var5 var4 var3 var2 var0))))
(assert (forall ((var0 Int) (var1 Int) (var2 AddrRange) (var3 Int) (var4 Int) (var5 AddrRange) (var6 AddrRange) (var7 Int) (var8 Int) (var9 Int) (var10 Int) (var11 Int) (var12 Heap) (var13 Int) (var14 Int) (var15 Int) (var16 AddrRange) (var17 AddrRange) (var18 Int) (var19 Int) (var20 Int) (var21 Int) (var22 Int) (var23 Heap)) (or (not (and (inv_main19 var23 var22 var21 var20 var19 var18 var17 var16 var15 var14) (and (and (and (not (<= 0 (+ var13 (- 1)))) (is-O_Int (read var23 (nthAddrRange var16 var14)))) (and (and (and (and (and (and (and (and (and (and (and (and (= var12 var23) (= var11 var22)) (= var10 var21)) (= var9 var20)) (= var8 var19)) (= var7 var18)) (= var6 var17)) (= var5 var16)) (= var4 var15)) (= var3 var14)) (= var2 var17)) (= var13 var19)) (= var1 (getInt (read var23 (nthAddrRange var16 var14)))))) (= var0 0)))) (inv_main24 var12 var11 var10 var9 var8 var7 var6 var5 var4 var3 var0))))
(assert (forall ((var0 Int) (var1 AddrRange) (var2 AddrRange) (var3 Int) (var4 Int) (var5 Int) (var6 Int) (var7 Int) (var8 Heap)) (or (not (and (inv_main8 var8 var7 var6 var5 var4 var3 var2 var1 var0) (<= 0 (+ (+ var7 (* (- 1) var6)) (- 1))))) (inv_main12 var8 var7 var6 var5 var4 var3 var2 var1 var0))))
(assert (forall ((var0 Int) (var1 Int) (var2 AddrRange) (var3 AddrRange) (var4 Int) (var5 Int) (var6 Heap) (var7 Int) (var8 Int) (var9 Int) (var10 Int) (var11 Int) (var12 Int) (var13 AddrRange) (var14 AddrRange) (var15 Int) (var16 Int) (var17 Int) (var18 Int) (var19 Int) (var20 Heap)) (or (not (and (inv_main39 var20 var19 var18 var17 var16 var15 var14 var13 var12 var11) (and (<= 0 (+ (+ (+ var10 (- 1)) (* (- 1) var9)) (- 1))) (and (= var8 1) (and (or (= var7 0) (= var8 1)) (and (and (and (and (and (and (and (and (and (and (= var6 var20) (= var10 var19)) (= var5 var18)) (= var9 var17)) (= var4 var16)) (= var8 var15)) (= var3 var14)) (= var2 var13)) (= var1 var12)) (= var0 var11)) (or (and (<= 0 (+ (+ var19 (* (- 1) var18)) (- 1))) (= var7 1)) (and (not (<= 0 (+ (+ var19 (* (- 1) var18)) (- 1)))) (= var7 0))))))))) (inv_main51 var6 var10 var9 var9 var4 var8 var3 var2 var1 var0))))
(assert (forall ((var0 Int) (var1 Int) (var2 Int) (var3 AddrRange) (var4 AddrRange) (var5 Int) (var6 Int) (var7 Int) (var8 Heap) (var9 Int) (var10 Int) (var11 Int) (var12 Int) (var13 Int) (var14 AddrRange) (var15 AddrRange) (var16 Int) (var17 Int) (var18 Int) (var19 Int) (var20 Int) (var21 Heap)) (or (not (and (inv_main54 var21 var20 var19 var18 var17 var16 var15 var14 var13 var12 var11) (and (and (<= 0 (+ (+ (+ var10 (- 1)) (* (- 1) (+ var9 1))) (- 1))) (and (and (is-O_Int (read var21 (nthAddrRange var15 var19))) (is-O_Int (read var21 (nthAddrRange var15 var19)))) (and (and (and (and (and (and (and (and (and (= var8 (write var21 (nthAddrRange var15 var19) (O_Int var11))) (= var10 var20)) (= var9 var19)) (= var7 var18)) (= var6 var17)) (= var5 var16)) (= var4 var15)) (= var3 var14)) (= var2 var13)) (= var1 var12)))) (= var0 (+ var9 1))))) (inv_main51 var8 var10 var0 var7 var6 var5 var4 var3 var2 var1))))
(assert (forall ((var0 Int) (var1 Int) (var2 Int) (var3 Int) (var4 Int) (var5 AddrRange) (var6 Int) (var7 AddrRange) (var8 AddrRange) (var9 Int) (var10 Int) (var11 Int) (var12 Int) (var13 Heap) (var14 Int) (var15 Int) (var16 Int) (var17 Int) (var18 AddrRange) (var19 Int) (var20 Int) (var21 AddrRange) (var22 AddrRange) (var23 Int) (var24 Int) (var25 Int) (var26 Int) (var27 Int) (var28 Heap)) (or (not (and (inv_main34 var28 var27 var26 var25 var24 var23 var22 var21 var20 var19 var18 var17 var16) (and (and (and (and (not (<= 0 (+ (+ var15 (* (- 1) (+ var14 1))) (- 1)))) (and (and (is-O_Int (read var28 (nthAddrRange var18 var17))) (is-O_Int (read var28 (nthAddrRange var18 var17)))) (and (and (and (and (and (and (and (and (and (and (and (and (= var13 (write var28 (nthAddrRange var18 var17) (O_Int var16))) (= var15 var27)) (= var12 var26)) (= var11 var25)) (= var10 var24)) (= var9 var23)) (= var8 var22)) (= var7 var21)) (= var6 var20)) (= var14 var19)) (= var5 var18)) (= var4 var17)) (= var3 var16)))) (= var2 0)) (= var1 (+ var4 1))) (= var0 (+ var14 1))))) (inv_main39 var13 var15 var2 var11 var1 var9 var8 var7 var6 var0))))
(assert (forall ((var0 Int) (var1 Int) (var2 Int) (var3 Int) (var4 Int) (var5 AddrRange) (var6 AddrRange) (var7 Int) (var8 Int) (var9 Int) (var10 Int) (var11 Int) (var12 Heap)) (or (not (and (inv_main24 var12 var11 var10 var9 var8 var7 var6 var5 var4 var3 var2) (and (and (and (not (<= 0 (+ (+ var11 (* (- 1) (+ var3 1))) (- 1)))) (= var2 1)) (= var1 0)) (= var0 (+ var3 1))))) (inv_main39 var12 var11 var1 var9 var8 var7 var6 var5 var4 var0))))
(assert (forall ((var0 Int) (var1 Int) (var2 AddrRange) (var3 AddrRange) (var4 Int) (var5 Int) (var6 Int) (var7 Int) (var8 Int) (var9 Heap) (var10 Int) (var11 Int) (var12 Int) (var13 Int) (var14 AddrRange) (var15 AddrRange) (var16 Int) (var17 Int) (var18 Int) (var19 Int) (var20 Int) (var21 Heap)) (or (not (and (inv_main40 var21 var20 var19 var18 var17 var16 var15 var14 var13 var12) (and (and (and (not (= var11 var10)) (is-O_Int (read var21 (nthAddrRange var15 var19)))) (and (and (and (and (and (and (and (and (and (and (= var9 var21) (= var8 var20)) (= var7 var19)) (= var6 var18)) (= var5 var17)) (= var4 var16)) (= var3 var15)) (= var2 var14)) (= var10 var13)) (= var1 var12)) (= var11 (getInt (read var21 (nthAddrRange var15 var19)))))) (= var0 (+ var7 1))))) (inv_main39 var9 var8 var0 var6 var5 var4 var3 var2 var10 var1))))
(assert (forall ((var0 Int) (var1 Int) (var2 Int) (var3 AddrRange) (var4 AddrRange) (var5 Int) (var6 Int) (var7 Int) (var8 Int) (var9 Int) (var10 Heap) (var11 Int) (var12 Int) (var13 Int) (var14 Int) (var15 AddrRange) (var16 AddrRange) (var17 Int) (var18 Int) (var19 Int) (var20 Int) (var21 Int) (var22 Heap)) (or (not (and (inv_main40 var22 var21 var20 var19 var18 var17 var16 var15 var14 var13) (and (and (and (and (= var12 var11) (is-O_Int (read var22 (nthAddrRange var16 var20)))) (and (and (and (and (and (and (and (and (and (and (= var10 var22) (= var9 var21)) (= var8 var20)) (= var7 var19)) (= var6 var18)) (= var5 var17)) (= var4 var16)) (= var3 var15)) (= var11 var14)) (= var2 var13)) (= var12 (getInt (read var22 (nthAddrRange var16 var20)))))) (= var1 (+ var8 1))) (= var0 1)))) (inv_main39 var10 var9 var1 var8 var6 var0 var4 var3 var11 var2))))
(assert (forall ((var0 Int) (var1 Int) (var2 Int) (var3 Int) (var4 AddrRange) (var5 AddrRange) (var6 Int) (var7 Int) (var8 Int) (var9 Int) (var10 Int) (var11 Heap)) (or (not (and (inv_main8 var11 var10 var9 var8 var7 var6 var5 var4 var3) (and (and (and (not (<= 0 (+ var10 (- 1)))) (not (<= 0 (+ (+ var10 (* (- 1) var9)) (- 1))))) (= var2 0)) (= var1 0)))) (inv_main39 var11 var10 var2 var8 var7 var6 var5 var4 var0 var1))))
(assert (forall ((var0 Int) (var1 Int) (var2 Int) (var3 AddrRange) (var4 AddrRange) (var5 Int) (var6 Int) (var7 Int) (var8 Int) (var9 Int) (var10 Heap)) (or (not (and (inv_main21 var10 var9 var8 var7 var6 var5 var4 var3 var2 var1) (and (is-O_Int (read var10 (nthAddrRange var3 var1))) (= var0 (getInt (read var10 (nthAddrRange var3 var1))))))) (inv_main34 var10 var9 var8 var7 var6 var5 var4 var3 var2 var1 var4 var6 var0))))
(assert (forall ((var0 Int) (var1 Int) (var2 AddrRange) (var3 AddrRange) (var4 Int) (var5 Int) (var6 Int) (var7 Int) (var8 Heap) (var9 Int) (var10 Int) (var11 Int) (var12 Int) (var13 AddrRange) (var14 AddrRange) (var15 Int) (var16 Int) (var17 Int) (var18 Int) (var19 Int) (var20 Heap)) (or (not (and (inv_main39 var20 var19 var18 var17 var16 var15 var14 var13 var12 var11) (and (and (not (= var10 0)) (not (= var9 1))) (and (and (and (and (and (and (and (and (and (and (= var8 var20) (= var7 var19)) (= var6 var18)) (= var5 var17)) (= var4 var16)) (= var9 var15)) (= var3 var14)) (= var2 var13)) (= var1 var12)) (= var0 var11)) (or (and (<= 0 (+ (+ var19 (* (- 1) var18)) (- 1))) (= var10 1)) (and (not (<= 0 (+ (+ var19 (* (- 1) var18)) (- 1)))) (= var10 0))))))) (inv_main40 var8 var7 var6 var5 var4 var9 var3 var2 var1 var0))))
(assert (forall ((var0 Int) (var1 AddrRange) (var2 AddrRange) (var3 Int) (var4 Int) (var5 Int) (var6 Int) (var7 Int) (var8 Heap)) (not (and (inv_main12 var8 var7 var6 var5 var4 var3 var2 var1 var0) (not (is-O_Int (read var8 (nthAddrRange var2 var6))))))))
(assert (forall ((var0 Int) (var1 AddrRange) (var2 AddrRange) (var3 Int) (var4 Int) (var5 Int) (var6 Int) (var7 Int) (var8 Heap)) (not (and (inv_main12 var8 var7 var6 var5 var4 var3 var2 var1 var0) (and (is-O_Int (read var8 (nthAddrRange var2 var6))) (not (within var2 (nthAddrRange var2 var6))))))))
(assert (forall ((var0 Int) (var1 AddrRange) (var2 AddrRange) (var3 Int) (var4 Int) (var5 Int) (var6 Int) (var7 Int) (var8 Heap)) (not (and (inv_main12 var8 var7 var6 var5 var4 var3 var2 var1 var0) (and (is-O_Int (read var8 (nthAddrRange var2 var6))) (not (is-O_Int (read var8 (nthAddrRange var2 var6)))))))))
(assert (forall ((var0 Int) (var1 AddrRange) (var2 AddrRange) (var3 Int) (var4 Int) (var5 Int) (var6 Int) (var7 Int) (var8 Heap)) (not (and (inv_main13 var8 var7 var6 var5 var4 var3 var2 var1 var0) (not (is-O_Int (read var8 (nthAddrRange var1 var6))))))))
(assert (forall ((var0 Int) (var1 AddrRange) (var2 AddrRange) (var3 Int) (var4 Int) (var5 Int) (var6 Int) (var7 Int) (var8 Heap)) (not (and (inv_main13 var8 var7 var6 var5 var4 var3 var2 var1 var0) (and (is-O_Int (read var8 (nthAddrRange var1 var6))) (not (within var1 (nthAddrRange var1 var6))))))))
(assert (forall ((var0 Int) (var1 AddrRange) (var2 AddrRange) (var3 Int) (var4 Int) (var5 Int) (var6 Int) (var7 Int) (var8 Heap)) (not (and (inv_main13 var8 var7 var6 var5 var4 var3 var2 var1 var0) (and (is-O_Int (read var8 (nthAddrRange var1 var6))) (not (is-O_Int (read var8 (nthAddrRange var1 var6)))))))))
(assert (forall ((var0 Int) (var1 Int) (var2 AddrRange) (var3 AddrRange) (var4 Int) (var5 Int) (var6 Int) (var7 Int) (var8 Int) (var9 Heap)) (not (and (inv_main19 var9 var8 var7 var6 var5 var4 var3 var2 var1 var0) (not (is-O_Int (read var9 (nthAddrRange var2 var0))))))))
(assert (forall ((var0 Int) (var1 Int) (var2 AddrRange) (var3 AddrRange) (var4 Int) (var5 Int) (var6 Int) (var7 Int) (var8 Int) (var9 Heap)) (not (and (inv_main19 var9 var8 var7 var6 var5 var4 var3 var2 var1 var0) (and (is-O_Int (read var9 (nthAddrRange var2 var0))) (not (within var2 (nthAddrRange var2 var0))))))))
(assert (forall ((var0 Int) (var1 Int) (var2 Int) (var3 AddrRange) (var4 Int) (var5 Int) (var6 AddrRange) (var7 AddrRange) (var8 Int) (var9 Int) (var10 Int) (var11 Int) (var12 Int) (var13 Heap)) (not (and (inv_main29 var13 var12 var11 var10 var9 var8 var7 var6 var5 var4 var3 var2 var1 var0) (not (is-O_Int (read var13 (nthAddrRange var3 var0))))))))
(assert (forall ((var0 Int) (var1 Int) (var2 Int) (var3 AddrRange) (var4 Int) (var5 Int) (var6 AddrRange) (var7 AddrRange) (var8 Int) (var9 Int) (var10 Int) (var11 Int) (var12 Int) (var13 Heap)) (not (and (inv_main29 var13 var12 var11 var10 var9 var8 var7 var6 var5 var4 var3 var2 var1 var0) (and (is-O_Int (read var13 (nthAddrRange var3 var0))) (not (within var3 (nthAddrRange var3 var0))))))))
(assert (forall ((var0 Int) (var1 Int) (var2 AddrRange) (var3 AddrRange) (var4 Int) (var5 Int) (var6 Int) (var7 Int) (var8 Int) (var9 Heap)) (not (and (inv_main21 var9 var8 var7 var6 var5 var4 var3 var2 var1 var0) (not (is-O_Int (read var9 (nthAddrRange var2 var0))))))))
(assert (forall ((var0 Int) (var1 Int) (var2 AddrRange) (var3 AddrRange) (var4 Int) (var5 Int) (var6 Int) (var7 Int) (var8 Int) (var9 Heap)) (not (and (inv_main21 var9 var8 var7 var6 var5 var4 var3 var2 var1 var0) (and (is-O_Int (read var9 (nthAddrRange var2 var0))) (not (within var2 (nthAddrRange var2 var0))))))))
(assert (forall ((var0 Int) (var1 Int) (var2 AddrRange) (var3 Int) (var4 Int) (var5 AddrRange) (var6 AddrRange) (var7 Int) (var8 Int) (var9 Int) (var10 Int) (var11 Int) (var12 Heap)) (not (and (inv_main34 var12 var11 var10 var9 var8 var7 var6 var5 var4 var3 var2 var1 var0) (not (is-O_Int (read var12 (nthAddrRange var2 var1))))))))
(assert (forall ((var0 Int) (var1 Int) (var2 AddrRange) (var3 Int) (var4 Int) (var5 AddrRange) (var6 AddrRange) (var7 Int) (var8 Int) (var9 Int) (var10 Int) (var11 Int) (var12 Heap)) (not (and (inv_main34 var12 var11 var10 var9 var8 var7 var6 var5 var4 var3 var2 var1 var0) (and (is-O_Int (read var12 (nthAddrRange var2 var1))) (not (within var2 (nthAddrRange var2 var1))))))))
(assert (forall ((var0 Int) (var1 Int) (var2 AddrRange) (var3 Int) (var4 Int) (var5 AddrRange) (var6 AddrRange) (var7 Int) (var8 Int) (var9 Int) (var10 Int) (var11 Int) (var12 Heap)) (not (and (inv_main34 var12 var11 var10 var9 var8 var7 var6 var5 var4 var3 var2 var1 var0) (and (is-O_Int (read var12 (nthAddrRange var2 var1))) (not (is-O_Int (read var12 (nthAddrRange var2 var1)))))))))
(assert (forall ((var0 Int) (var1 Int) (var2 AddrRange) (var3 AddrRange) (var4 Int) (var5 Int) (var6 Int) (var7 Int) (var8 Int) (var9 Heap)) (not (and (inv_main40 var9 var8 var7 var6 var5 var4 var3 var2 var1 var0) (not (is-O_Int (read var9 (nthAddrRange var3 var7))))))))
(assert (forall ((var0 Int) (var1 Int) (var2 AddrRange) (var3 AddrRange) (var4 Int) (var5 Int) (var6 Int) (var7 Int) (var8 Int) (var9 Heap)) (not (and (inv_main40 var9 var8 var7 var6 var5 var4 var3 var2 var1 var0) (and (is-O_Int (read var9 (nthAddrRange var3 var7))) (not (within var3 (nthAddrRange var3 var7))))))))
(assert (forall ((var0 Int) (var1 Int) (var2 AddrRange) (var3 AddrRange) (var4 Int) (var5 Int) (var6 Int) (var7 Int) (var8 Int) (var9 Heap)) (not (and (inv_main51 var9 var8 var7 var6 var5 var4 var3 var2 var1 var0) (not (is-O_Int (read var9 (nthAddrRange var3 (+ var7 1)))))))))
(assert (forall ((var0 Int) (var1 Int) (var2 AddrRange) (var3 AddrRange) (var4 Int) (var5 Int) (var6 Int) (var7 Int) (var8 Int) (var9 Heap)) (not (and (inv_main51 var9 var8 var7 var6 var5 var4 var3 var2 var1 var0) (and (is-O_Int (read var9 (nthAddrRange var3 (+ var7 1)))) (not (within var3 (nthAddrRange var3 (+ var7 1)))))))))
(assert (forall ((var0 Int) (var1 Int) (var2 Int) (var3 AddrRange) (var4 AddrRange) (var5 Int) (var6 Int) (var7 Int) (var8 Int) (var9 Int) (var10 Heap)) (not (and (inv_main54 var10 var9 var8 var7 var6 var5 var4 var3 var2 var1 var0) (not (is-O_Int (read var10 (nthAddrRange var4 var8))))))))
(assert (forall ((var0 Int) (var1 Int) (var2 Int) (var3 AddrRange) (var4 AddrRange) (var5 Int) (var6 Int) (var7 Int) (var8 Int) (var9 Int) (var10 Heap)) (not (and (inv_main54 var10 var9 var8 var7 var6 var5 var4 var3 var2 var1 var0) (and (is-O_Int (read var10 (nthAddrRange var4 var8))) (not (within var4 (nthAddrRange var4 var8))))))))
(assert (forall ((var0 Int) (var1 Int) (var2 Int) (var3 AddrRange) (var4 AddrRange) (var5 Int) (var6 Int) (var7 Int) (var8 Int) (var9 Int) (var10 Heap)) (not (and (inv_main54 var10 var9 var8 var7 var6 var5 var4 var3 var2 var1 var0) (and (is-O_Int (read var10 (nthAddrRange var4 var8))) (not (is-O_Int (read var10 (nthAddrRange var4 var8)))))))))
(assert (forall ((var0 Int) (var1 Int) (var2 AddrRange) (var3 AddrRange) (var4 Int) (var5 Int) (var6 Int) (var7 Int) (var8 Int) (var9 Heap)) (not (and (inv_main58 var9 var8 var7 var6 var5 var4 var3 var2 var1 var0) (not (is-O_Int (read var9 (nthAddrRange var3 var7))))))))
(assert (forall ((var0 Int) (var1 Int) (var2 AddrRange) (var3 AddrRange) (var4 Int) (var5 Int) (var6 Int) (var7 Int) (var8 Int) (var9 Heap)) (not (and (inv_main58 var9 var8 var7 var6 var5 var4 var3 var2 var1 var0) (not (within var3 (nthAddrRange var3 var7)))))))
(assert (forall ((var0 Int) (var1 Int) (var2 AddrRange) (var3 AddrRange) (var4 Int) (var5 Int) (var6 Int) (var7 Int) (var8 Int) (var9 Heap)) (not (and (inv_main58 var9 var8 var7 var6 var5 var4 var3 var2 var1 var0) (not (is-O_Int (read var9 (nthAddrRange var3 var7))))))))
(assert (forall ((var0 Int) (var1 Int) (var2 AddrRange) (var3 AddrRange) (var4 Int) (var5 Int) (var6 Int) (var7 Int) (var8 Int) (var9 Heap)) (not (and (inv_main58 var9 var8 var7 var6 var5 var4 var3 var2 var1 var0) (and (is-O_Int (read var9 (nthAddrRange var3 var7))) (not (within var3 (nthAddrRange var3 var7))))))))
(assert (forall ((var0 Int) (var1 Int) (var2 AddrRange) (var3 AddrRange) (var4 Int) (var5 Int) (var6 Int) (var7 Int) (var8 Int) (var9 Heap)) (not (and (inv_main58 var9 var8 var7 var6 var5 var4 var3 var2 var1 var0) (and (is-O_Int (read var9 (nthAddrRange var3 var7))) (= (getInt (read var9 (nthAddrRange var3 var7))) var1))))))
(check-sat)
